#
# This configuration was generated 2018/08/28 by dmrconfig,
# Version 0.1.32, Copyright (C) 2018 Serge Vakulenko KK6ABQ
#
Radio: TYT MD-UV380
Name: -
ID: 1234
Last Programmed Date: 2018-08-20 12:41:08
CPS Software Version: V01.07

# Table of analog channels.
# 1) Channel number: 1-3000
# 2) Name: up to 16 characters, use '_' instead of space
# 3) Receive frequency in MHz
# 4) Transmit frequency or +/- offset in MHz
# 5) Transmit power: High, Mid, Low
# 6) Scan list: - or index
# 7) Squelch level: 0, 1, 2, 3, 4, 5, 6, 7, 8, 9
# 8) Transmit timeout timer in seconds: 0, 15, 30, 45... 555
# 9) Receive only: -, +
# 10) Admit criteria: -, Free, Tone
# 11) Guard tone for receive, or '-' to disable
# 12) Guard tone for transmit, or '-' to disable
# 13) Bandwidth in kHz: 12.5, 20, 25
#
Analog  Name             Receive   Transmit Power Scan Sq TOT RO Admit  RxTone TxTone Width
    1   Channel1         400.000   +0       High  -    1  60  -  -      -      -      12.5

# Table of channel zones.
# 1) Zone number: 1-250
# 2) Name: up to 16 characters, use '_' instead of space
# 3) List of channels: numbers and ranges (N-M) separated by comma
#
Zone    Name             Channels
   1a   Zone1            1
   1b   -                -

# Table of scan lists.
# 1) Zone number: 1-250
# 2) Name: up to 16 characters, use '_' instead of space
# 3) Priority channel 1 (50% of scans): -, Sel or index
# 4) Priority channel 2 (25% of scans): -, Sel or index
# 5) Designated transmit channel: -, Last or index
# 6) List of channels: numbers and ranges (N-M) separated by comma
#
Scanlist Name             PCh1 PCh2 TxCh Channels
    1    ScanList1        -    -    -    1

# Table of contacts.
# 1) Contact number: 1-10000
# 2) Name: up to 16 characters, use '_' instead of space
# 3) Call type: Group, Private, All
# 4) Call ID: 1...16777215
# 5) Call receive tone: -, Yes
#
Contact Name             Type    ID       RxTone
    1   Contact1         Group   1        -

# Table of group lists.
# 1) Group list number: 1-250
# 2) List of contacts: numbers and ranges (N-M) separated by comma
#
Grouplist Contacts
    1     1

# Table of text messages.
# 1) Message number: 1-50
# 2) Text: up to 144 characters
#
Message Text
    1   Hello
